p cnf 113 389
-2 3 -4 0
2 -3 -4 0
-2 -3 4 0
2 3 4 0
6 4 0
6 5 0
-4 -5 -6 0
7 -6 0
7 3 0
6 -3 -7 0
-8 -1 0
-8 7 0
1 -7 8 0
9 1 0
9 -1 0
-10 8 0
-10 -9 0
-8 9 10 0
-13 3 0
-13 12 0
-3 -12 13 0
-14 11 0
-14 13 0
-11 -13 14 0
16 15 0
16 15 0
-15 -16 0
-18 17 0
-18 -2 0
-17 2 18 0
-19 -16 0
-19 -18 0
16 18 19 0
-20 14 0
-20 19 0
-14 -19 20 0
21 10 0
21 -20 0
-10 20 -21 0
-23 11 0
-23 22 0
-11 -22 23 0
-25 -24 0
-25 -17 0
24 17 25 0
17 -15 -26 0
-17 15 -26 0
17 15 26 0
-17 -15 26 0
-27 -26 0
-27 14 0
26 -14 27 0
-28 -16 0
-28 4 0
16 -4 28 0
-29 27 0
-29 28 0
-27 -28 29 0
30 25 0
30 -29 0
-25 29 -30 0
-31 -23 0
-31 -30 0
23 30 31 0
-21 -31 -32 0
21 31 -32 0
-21 31 32 0
21 -31 32 0
-22 11 -33 0
22 -11 -33 0
-22 -11 33 0
22 11 33 0
33 -34 -35 0
-33 34 -35 0
33 34 35 0
-33 -34 35 0
-37 36 0
-37 4 0
-36 -4 37 0
34 17 -38 0
-34 -17 -38 0
34 -17 38 0
-34 17 38 0
38 -33 -39 0
-38 33 -39 0
38 33 39 0
-38 -33 39 0
-40 -16 0
-40 22 0
16 -22 40 0
-40 -16 -41 0
40 16 -41 0
-40 16 41 0
40 -16 41 0
39 -41 -42 0
-39 41 -42 0
39 41 42 0
-39 -41 42 0
-42 -18 -43 0
42 18 -43 0
-42 18 43 0
42 -18 43 0
-44 37 0
-44 43 0
-37 -43 44 0
46 -45 0
46 -17 0
45 17 -46 0
47 -44 0
47 -46 0
44 46 -47 0
26 -22 -48 0
-26 22 -48 0
26 22 48 0
-26 -22 48 0
-49 48 0
-49 -16 0
-48 16 49 0
-50 -18 0
-50 6 0
18 -6 50 0
-51 -50 0
-51 -13 0
50 13 51 0
3 -7 -52 0
-3 7 -52 0
3 7 52 0
-3 -7 52 0
53 -3 0
53 -52 0
3 52 -53 0
54 -51 0
54 -53 0
51 53 -54 0
-55 18 0
-55 40 0
-18 -40 55 0
-56 -55 0
-56 -11 0
55 11 56 0
57 -17 0
57 5 0
17 -5 -57 0
58 56 0
58 57 0
-56 -57 -58 0
-59 54 0
-59 58 0
-54 -58 59 0
-60 -49 0
-60 59 0
49 -59 60 0
61 -47 0
61 60 0
47 -60 -61 0
27 -50 -62 0
-27 50 -62 0
27 50 62 0
-27 -50 62 0
63 52 0
63 19 0
-52 -19 -63 0
-64 -63 0
-64 8 0
63 -8 64 0
65 45 0
65 15 0
-45 -15 -65 0
66 19 0
66 -14 0
-19 14 -66 0
67 -66 0
67 -15 0
66 15 -67 0
-68 -65 0
-68 67 0
65 -67 68 0
4 37 -69 0
-4 -37 -69 0
4 -37 69 0
-4 37 69 0
70 18 0
70 69 0
-18 -69 -70 0
-71 -68 0
-71 70 0
68 -70 71 0
72 71 0
72 69 0
-71 -69 -72 0
22 -36 -73 0
-22 36 -73 0
22 36 73 0
-22 -36 73 0
74 73 0
74 12 0
-73 -12 -74 0
75 -3 0
75 14 0
3 -14 -75 0
75 -27 -76 0
-75 27 -76 0
75 27 76 0
-75 -27 76 0
-28 76 -77 0
28 -76 -77 0
-28 -76 77 0
28 76 77 0
-78 -77 0
-78 -4 0
77 4 78 0
74 -78 -79 0
-74 78 -79 0
74 78 79 0
-74 -78 79 0
-80 79 0
-80 67 0
-79 -67 80 0
-72 80 -81 0
72 -80 -81 0
-72 -80 81 0
72 80 81 0
82 64 0
82 81 0
-64 -81 -82 0
83 -34 0
83 8 0
34 -8 -83 0
3 -36 -84 0
-3 36 -84 0
3 36 84 0
-3 -36 84 0
-83 -84 -85 0
83 84 -85 0
-83 84 85 0
83 -84 85 0
86 -82 0
86 85 0
82 -85 -86 0
62 86 -87 0
-62 -86 -87 0
62 -86 87 0
-62 86 87 0
-88 -61 0
-88 -87 0
61 87 88 0
35 -88 -89 0
-35 88 -89 0
35 88 89 0
-35 -88 89 0
90 19 0
90 39 0
-19 -39 -90 0
91 73 0
91 -26 0
-73 26 -91 0
92 91 0
92 -28 0
-91 28 -92 0
93 -90 0
93 92 0
90 -92 -93 0
-94 11 0
-94 -66 0
-11 66 94 0
-96 -95 0
-96 -5 0
95 5 96 0
97 94 0
97 96 0
-94 -96 -97 0
98 11 0
98 33 0
-11 -33 -98 0
-99 98 0
-99 -14 0
-98 14 99 0
-100 99 0
-100 16 0
-99 -16 100 0
-101 4 0
-101 27 0
-4 -27 101 0
-13 101 -102 0
13 -101 -102 0
-13 -101 102 0
13 101 102 0
52 -102 -103 0
-52 102 -103 0
52 102 103 0
-52 -102 103 0
-104 -26 0
-104 -103 0
26 103 104 0
-105 -100 0
-105 104 0
100 -104 105 0
-106 45 0
-106 39 0
-45 -39 106 0
-107 105 0
-107 -106 0
-105 106 107 0
108 12 0
108 -101 0
-12 101 -108 0
107 -108 -109 0
-107 108 -109 0
107 108 109 0
-107 -108 109 0
-110 97 0
-110 109 0
-97 -109 110 0
-111 -93 0
-111 110 0
93 -110 111 0
-89 -111 -112 0
89 111 -112 0
-89 111 112 0
89 -111 112 0
-113 32 0
-113 112 0
-32 -112 113 0
-37 -79 0
18 -94 0
-110 -9 -103 15 37 0
46 -88 -97 -36 -42 44 0
55 60 46 -28 -47 0
-78 -16 3 -41 96 65 0
46 -96 54 77 5 -38 0
-12 -75 85 36 0
-41 28 -43 88 -19 107 0
96 98 -9 39 -89 0
-61 42 0
11 -6 15 64 0
105 -104 -34 102 11 0
-109 56 45 31 0
93 12 -106 9 86 -18 0
-14 106 12 -41 -71 0
8 17 23 -4 11 -105 0
-35 78 0
99 -3 91 74 79 89 0
-54 -16 109 20 0
9 89 54 0
2 91 -18 0
-67 37 29 0
33 -104 113 0
86 -3 24 0
28 54 48 0
65 62 61 0
30 -42 -65 100 24 0
-37 -10 -92 26 0
82 -29 103 -99 33 0
70 99 0
5 42 -51 -108 0
73 -37 -27 -12 88 0
-34 -35 -40 78 0
-55 14 26 47 -90 0
76 106 -97 0
-15 12 -64 78 96 85 0
-9 81 -31 105 61 -98 0
55 101 -12 78 -19 -49 0
100 66 34 -8 -77 0
111 106 49 0
36 10 0
-112 -15 -34 0
-17 -3 0
-36 -86 87 -111 -35 1 0
-101 -2 -87 4 0
-45 -96 5 -39 -97 -58 0
-44 22 52 -33 0
25 -112 38 0
-104 3 88 0
-63 27 19 1 0
-39 -81 42 89 112 0
-40 -99 -76 107 14 0
-99 47 92 0
-97 64 -65 16 68 -109 0
45 96 47 -43 -103 4 0
-17 -98 11 0
-97 -45 -34 0
35 -84 0
12 30 32 -105 0
35 50 32 -77 0
-23 -24 -18 -105 0
44 -48 81 8 0
29 -48 -58 0
73 -6 0
113 0
